(set-logic QF_S)
(declare-fun _var_0xINPUT_93296_() String)
(declare-fun __woorpje_diseq_pref0_() String)
(declare-fun __woorpje_diseq_suf_l0_() String)
(declare-fun __woorpje_diseq_suf_r0_() String)
(declare-fun __woorpje_diseq_pref1_() String)
(declare-fun __woorpje_diseq_suf_l1_() String)
(declare-fun __woorpje_diseq_suf_r1_() String)
(declare-fun __woorpje_diseq_pref2_() String)
(declare-fun __woorpje_diseq_suf_l2_() String)
(declare-fun __woorpje_diseq_suf_r2_() String)
(declare-fun __woorpje_diseq_pref3_() String)
(declare-fun __woorpje_diseq_suf_l3_() String)
(declare-fun __woorpje_diseq_suf_r3_() String)
(declare-fun __woorpje_diseq_pref4_() String)
(declare-fun __woorpje_diseq_suf_l4_() String)
(declare-fun __woorpje_diseq_suf_r4_() String)
(assert (=(str.++  "fB9De3KAY9" "")(str.++ __woorpje_diseq_pref0_  "9" __woorpje_diseq_suf_l0_  "")) )
(assert (=(str.++ _var_0xINPUT_93296_  "")(str.++ __woorpje_diseq_pref0_  "D" __woorpje_diseq_suf_r0_  "")) )
(assert (=(str.++ _var_0xINPUT_93296_  "")(str.++ __woorpje_diseq_pref2_  "f" __woorpje_diseq_suf_l2_  "")) )
(assert (=(str.++  "3s71lxYG6e" "")(str.++ __woorpje_diseq_pref2_  "3" __woorpje_diseq_suf_r2_  "")) )
(assert  (<= (* (str.len _var_0xINPUT_93296_)(- 1)) (- 1)) )
(assert  (<= (* (str.len _var_0xINPUT_93296_)(- 1)) (- 11)) )
(assert  (<= (* (str.len _var_0xINPUT_93296_)(- 1)) (- 1)) )
(assert  (<= (* (str.len _var_0xINPUT_93296_)(- 1)) (- 1)) )
(check-sat)
